Problem:    
Rows:       113
Columns:    45 (34 integer, 34 binary)
Non-zeros:  350
Status:     INTEGER OPTIMAL
Objective:  value = 8.042256 (MINimum)

   No.   Row name        Activity     Lower bound   Upper bound
------ ------------    ------------- ------------- -------------
     1 r.5                   1032.04             0               
     2 r.6                  -1015.96      -1021.33               
     3 r.7                   8.04226             0               
     4 r.8                   8.04226       -1021.5               
     5 r.9                   1032.04             0               
     6 r.10                 -1018.63      -1020.69               
     7 r.11                  8.04226             0               
     8 r.12                  8.04226      -1019.29               
     9 r.13                  1032.04             0               
    10 r.14                 -1021.94      -1022.29               
    11 r.15                  8.04226             0               
    12 r.16                  8.04226      -1022.91               
    13 r.17                  8.04226             0               
    14 r.18                  8.04226      -1017.09               
    15 r.19                  1032.04             0               
    16 r.20                 -1015.96      -1016.17               
    17 r.21                  1032.04             0               
    18 r.22                 -1023.79      -1023.79               
    19 r.23                  8.04226             0               
    20 r.24                   0.2074         -1023               
    21 r.25                        1             1             = 
    22 r.26                        1             1             = 
    23 r.27                        1             1             = 
    24 r.28                        1             1             = 
    25 r.29                        1             1             = 
    26 r.30                        2             2               
    27 r.31                       -2         -1025               
    28 r.32                  -2.6738      -1020.69               
    29 r.33                     1024             2               
    30 r.34                    -1024         -1025               
    31 r.35                     2048      -1019.29               
    32 r.36                        2             2               
    33 r.37                       -2         -1025               
    34 r.38                  -5.9832      -1022.29               
    35 r.39                     1024             2               
    36 r.40                    -1024         -1025               
    37 r.41                     2048      -1022.91               
    38 r.42                     1025             2               
    39 r.43                    -1025         -1025               
    40 r.44                     2048      -1017.09               
    41 r.45                     1025             2               
    42 r.46                    -1025         -1025               
    43 r.47                     2048      -1016.17               
    44 r.48                 -1016.17      -1021.33               
    45 r.49                  7.83486       -1021.5               
    46 r.50                 -1016.17      -1021.33               
    47 r.51                  7.83486       -1021.5               
    48 r.52                        2             2               
    49 r.53                       -2         -1025               
    50 r.54                   2.6738        2.6738               
    51 r.55                     1024             2               
    52 r.56                    -1024         -1025               
    53 r.57                     2048        2.4993               
    54 r.58                        2             2               
    55 r.59                       -2         -1025               
    56 r.60                  -3.3094      -1022.29               
    57 r.61                     1024             2               
    58 r.62                    -1024         -1025               
    59 r.63                     2048      -1022.91               
    60 r.64                     1025             2               
    61 r.65                    -1025         -1025               
    62 r.66                  2050.67      -1017.09               
    63 r.67                     1025             2               
    64 r.68                    -1025         -1025               
    65 r.69                     2048      -1016.17               
    66 r.70                 -1018.84      -1020.69               
    67 r.71                  7.83486      -1019.29               
    68 r.72                 -1018.84      -1020.69               
    69 r.73                  7.83486      -1019.29               
    70 r.74                        2             2               
    71 r.75                       -2         -1025               
    72 r.76                   5.9832        2.6738               
    73 r.77                     1024             2               
    74 r.78                    -1024         -1025               
    75 r.79                     2048        2.4993               
    76 r.80                        2             2               
    77 r.81                       -2         -1025               
    78 r.82                   3.3094        3.3094               
    79 r.83                     1024             2               
    80 r.84                    -1024         -1025               
    81 r.85                     2048       4.70525               
    82 r.86                     1025             2               
    83 r.87                    -1025         -1025               
    84 r.88                  2053.98      -1017.09               
    85 r.89                     1025             2               
    86 r.90                    -1025         -1025               
    87 r.91                     2048      -1016.17               
    88 r.92                 -1022.15      -1022.29               
    89 r.93                  7.83486      -1022.91               
    90 r.94                 -1022.15      -1022.29               
    91 r.95                  7.83486      -1022.91               
    92 r.96                     1025             2               
    93 r.97                    -1025         -1025               
    94 r.98                     2048        2.6738               
    95 r.99                     1025             2               
    96 r.100                   -1025         -1025               
    97 r.101                    2048        2.4993               
    98 r.102                    1025             2               
    99 r.103                   -1025         -1025               
   100 r.104                 2045.33        3.3094               
   101 r.105                    1025             2               
   102 r.106                   -1025         -1025               
   103 r.107                    2048       4.70525               
   104 r.108                    1025             2               
   105 r.109                   -1025         -1025               
   106 r.110                 2042.02        1.7143               
   107 r.111                    1025             2               
   108 r.112                   -1025         -1025               
   109 r.113                    2048       1.08789               
   110 r.114                 7.83486      -1017.09               
   111 r.115                -1016.17      -1016.17               
   112 r.116                 7.83486      -1017.09               
   113 r.117                -1016.17      -1016.17               

   No. Column name       Activity     Lower bound   Upper bound
------ ------------    ------------- ------------- -------------
     1 tt                    8.04226             0               
     2 s_1_1        *              1             0             1 
     3 t_1_1                       0             0               
     4 s_2_1        *              0             0             1 
     5 t_2_1                       0             0               
     6 s_1_2        *              1             0             1 
     7 t_1_2                  2.6738             0               
     8 s_2_2        *              0             0             1 
     9 t_2_2                       0             0               
    10 s_1_3        *              1             0             1 
    11 t_1_3                  5.9832             0               
    12 s_2_3        *              0             0             1 
    13 t_2_3                       0             0               
    14 s_1_4        *              0             0             1 
    15 t_1_4                       0             0               
    16 s_2_4        *              1             0             1 
    17 t_2_4                       0             0               
    18 s_1_5        *              1             0             1 
    19 t_1_5                 7.83486             0               
    20 s_2_5        *              0             0             1 
    21 t_2_5                 7.83486             0               
    22 r_1_1_2      *              0             0             1 
    23 u_1_1_2      *              0             0             1 
    24 r_2_1_2      *              1             0             1 
    25 u_2_1_2      *              0             0             1 
    26 r_1_1_3      *              0             0             1 
    27 u_1_1_3      *              0             0             1 
    28 r_2_1_3      *              1             0             1 
    29 u_2_1_3      *              0             0             1 
    30 r_1_1_4      *              1             0             1 
    31 u_1_1_4      *              0             0             1 
    32 r_2_1_4      *              1             0             1 
    33 u_2_1_4      *              0             0             1 
    34 r_1_2_3      *              0             0             1 
    35 u_1_2_3      *              0             0             1 
    36 r_2_2_3      *              1             0             1 
    37 u_2_2_3      *              0             0             1 
    38 r_1_2_4      *              1             0             1 
    39 u_1_2_4      *              0             0             1 
    40 r_2_2_4      *              1             0             1 
    41 u_2_2_4      *              0             0             1 
    42 r_1_3_4      *              1             0             1 
    43 u_1_3_4      *              0             0             1 
    44 r_2_3_4      *              1             0             1 
    45 u_2_3_4      *              0             0             1 

Integer feasibility conditions:

KKT.PE: max.abs.err = 2.27e-13 on row 10
        max.rel.err = 1.10e-16 on row 10
        High quality

KKT.PB: max.abs.err = 1.14e-13 on row 18
        max.rel.err = 1.11e-16 on row 18
        High quality

End of output
